sets/C/cp-n19-kk.vrp
NAME : (null)
COMMENT : (null)
TYPE : CVRP
DIMENSION : 19
EDGE_WEIGHT_TYPE : EUC_2D
CAPACITY : 58
NODE_COORD_SECTION
 1   0   3
 2   4  15
 3  10  11
 4   2   3
 5   2   6
 6   7   0
 7   0   7
 8  11  18
 9  12  15
10   8  17
11  14  14
12   4   9
13   4   3
14   3   4
15   4   0
16  16   4
17  13  13
18  13   2
19   2   4
DEMAND_SECTION
 1   0
 2   4
 3  10
 4   4
 5  11
 6  23
 7  20
 8   3
 9   7
10   6
11  12
12  13
13  15
14   5
15   7
16   7
17  12
18   8
19  16
DEPOT_SECTION
 1
-1
EOF