sets/C/cp-n19-kk.opt
Route #1: 4 6
Route #2: 3 2 16 10 8 7 9 1
Route #3: 13 12 18
Route #4: 14 5 17 15 11
cost 99
